% seed = 2699753

mint = 58;
% maxt = 225;

nActs = 42;
dur = [0,8,8,5,9,6,10,8,7,2,9,2,8,4,7,1,10,6,5,5,5,5,6,10,3,5,10,10,2,4,1,10,6,2,4,1,1,3,7,8,2,0];

nSkills = 4;
sreq = [| 0,0,0,0,
	| 7,0,7,0,
	| 0,1,0,3,
	| 0,6,6,0,
	| 4,2,0,0,
	| 0,5,5,0,
	| 1,5,0,0,
	| 0,2,3,0,
	| 2,0,4,0,
	| 0,2,0,4,
	| 4,0,0,5,
	| 4,0,6,0,
	| 3,3,0,0,
	| 3,0,7,0,
	| 0,3,5,0,
	| 0,5,0,5,
	| 5,0,1,0,
	| 3,2,0,0,
	| 0,7,0,2,
	| 0,7,0,4,
	| 0,5,4,0,
	| 4,3,0,0,
	| 0,3,4,0,
	| 0,0,4,3,
	| 0,7,0,4,
	| 0,4,0,2,
	| 3,0,4,0,
	| 0,2,2,0,
	| 3,0,2,0,
	| 5,0,0,5,
	| 4,0,0,3,
	| 0,0,3,6,
	| 3,2,0,0,
	| 2,0,0,5,
	| 7,0,3,0,
	| 5,0,7,0,
	| 0,0,4,7,
	| 0,0,6,3,
	| 0,2,4,0,
	| 0,7,0,4,
	| 0,3,0,4,
	| 0,0,0,0, |];

nResources = 30;
mastery = [| true,true,false,true,
	| false,false,true,false,
	| false,false,true,true,
	| false,false,true,false,
	| false,true,false,false,
	| true,true,true,false,
	| false,false,false,true,
	| true,false,false,false,
	| true,true,false,true,
	| false,true,true,true,
	| true,false,true,true,
	| false,false,false,true,
	| true,true,false,false,
	| true,true,false,true,
	| true,false,false,false,
	| false,true,true,false,
	| true,false,false,false,
	| false,false,true,false,
	| false,true,false,true,
	| true,false,true,false,
	| true,true,false,false,
	| true,false,true,true,
	| true,true,true,false,
	| false,true,false,false,
	| true,true,false,true,
	| true,true,false,false,
	| true,false,true,true,
	| false,false,false,true,
	| false,true,true,true,
	| false,false,true,false, |];

nPrecs = 73;
pred = [1,1,1,2,2,3,3,4,4,4,5,5,5,6,6,6,7,7,7,8,8,9,9,10,11,11,11,12,12,13,13,13,14,15,15,16,16,16,17,17,18,18,19,20,21,21,22,23,24,25,26,26,27,27,27,28,29,29,30,31,32,33,33,34,34,35,36,36,37,38,39,40,41];
succ = [2,3,4,6,7,5,7,36,7,24,12,15,8,9,10,13,34,10,16,25,21,23,16,11,29,14,30,19,27,17,22,24,23,34,20,17,21,31,18,37,26,28,35,24,28,22,38,35,29,36,40,32,30,31,32,38,33,31,40,40,41,35,37,41,39,39,37,38,39,41,42,42,42];

nUnrels = 446;
unpred = [2,2,2,2,2,2,2,2,2,2,2,3,3,3,3,4,4,4,4,4,4,4,4,4,4,4,5,5,5,5,5,5,5,5,5,5,5,5,6,6,6,6,6,6,6,6,6,6,7,7,7,7,7,7,7,7,7,7,7,8,8,8,8,8,8,8,8,8,8,8,8,8,8,8,8,8,8,8,8,8,8,8,8,9,9,9,9,9,9,9,9,9,9,9,9,9,9,9,9,10,10,10,10,10,10,10,10,10,10,10,10,10,10,10,10,10,10,10,10,11,11,11,11,11,11,11,11,11,11,11,11,11,11,11,11,11,11,11,11,12,12,12,12,12,12,12,12,12,12,12,12,12,12,12,12,12,12,12,12,13,13,13,13,13,13,13,13,13,13,13,13,14,14,14,14,14,14,14,14,14,14,14,14,14,14,14,14,14,14,14,14,14,14,14,14,15,15,15,15,15,15,15,15,15,15,15,15,15,15,15,16,16,16,16,16,16,16,16,16,16,16,16,17,17,17,17,17,17,17,17,17,17,17,17,17,17,17,18,18,18,18,18,18,18,18,18,18,18,18,18,18,18,18,18,19,19,19,19,19,19,19,19,19,19,19,19,19,19,19,19,19,19,19,19,20,20,20,20,20,20,20,20,20,20,20,20,20,21,21,21,21,21,21,21,21,21,21,21,21,21,21,21,21,22,22,22,22,22,22,22,22,22,22,22,22,22,22,22,22,22,23,23,23,23,23,23,23,23,23,23,23,23,23,23,23,23,24,24,24,24,24,24,24,24,24,24,25,25,25,25,25,25,25,25,25,25,25,26,26,26,26,26,26,26,26,26,26,26,26,27,27,27,27,27,27,27,27,27,28,28,28,28,28,28,28,28,28,28,28,29,29,29,29,29,29,30,30,30,30,30,30,30,30,30,30,31,31,31,31,31,31,31,31,31,32,32,32,32,32,32,32,32,33,33,33,33,33,34,34,34,34,34,35,35,35,35,35,36,37,37,37,38,38,39,39,40];
unsucc = [3,4,5,8,12,15,19,20,25,27,36,4,6,9,13,5,6,8,9,12,13,15,19,20,25,27,6,7,9,10,11,13,14,16,17,18,23,26,7,8,12,15,19,20,25,27,34,36,8,9,12,13,15,19,20,24,25,27,36,9,10,11,12,13,14,15,16,17,18,19,20,23,24,26,27,29,30,31,32,33,34,35,40,10,11,12,13,14,15,19,20,24,25,27,29,30,33,34,36,12,13,15,16,17,18,19,20,21,22,24,25,26,27,28,32,34,36,38,41,12,13,15,16,17,18,19,20,21,22,24,25,26,27,28,32,34,36,38,41,13,14,15,16,17,18,20,21,22,23,24,25,26,28,29,33,34,36,37,38,14,15,16,19,20,21,23,25,27,30,34,36,15,16,17,18,19,20,21,22,24,25,26,27,28,29,30,31,32,33,34,36,37,38,40,41,16,17,18,19,21,22,23,25,26,27,28,30,32,36,38,19,20,23,24,25,27,29,30,33,34,35,36,19,20,21,22,23,24,25,27,29,30,31,33,34,35,36,19,20,21,22,23,24,25,27,29,30,31,33,34,35,36,37,39,20,21,22,23,24,25,26,27,28,29,30,31,32,33,34,36,37,38,40,41,21,22,23,25,26,27,28,30,32,34,36,38,41,23,24,25,26,27,29,30,31,32,33,34,35,36,37,39,40,23,24,25,26,27,28,29,30,31,32,33,34,35,36,37,39,40,24,25,26,27,28,29,30,31,32,33,34,36,37,38,40,41,25,26,27,28,30,32,34,36,38,41,26,27,28,29,30,31,32,33,34,35,40,27,28,29,30,31,33,34,35,36,37,38,39,28,29,33,34,35,36,37,38,39,29,30,31,32,33,34,35,36,37,39,40,30,32,34,36,38,41,31,32,33,34,35,36,37,38,39,41,32,33,34,35,36,37,38,39,41,33,34,35,36,37,38,39,40,34,36,38,40,41,35,36,37,38,40,36,37,38,40,41,40,38,40,41,39,40,40,41,41];

USEFUL_RES = [{},
	{1,2,3,4,6,8,9,10,11,13,14,15,16,17,18,20,21,22,23,25,26,27,29,30},
	{1,3,5,6,7,9,10,11,12,13,14,16,19,21,22,23,24,25,26,27,28,29},
	{1,2,3,4,5,6,9,10,11,13,14,16,18,19,20,21,22,23,24,25,26,27,29,30},
	{1,5,6,8,9,10,11,13,14,15,16,17,19,20,21,22,23,24,25,26,27,29},
	{1,2,3,4,5,6,9,10,11,13,14,16,18,19,20,21,22,23,24,25,26,27,29,30},
	{1,5,6,8,9,10,11,13,14,15,16,17,19,20,21,22,23,24,25,26,27,29},
	{1,2,3,4,5,6,9,10,11,13,14,16,18,19,20,21,22,23,24,25,26,27,29,30},
	{1,2,3,4,6,8,9,10,11,13,14,15,16,17,18,20,21,22,23,25,26,27,29,30},
	{1,3,5,6,7,9,10,11,12,13,14,16,19,21,22,23,24,25,26,27,28,29},
	{1,3,6,7,8,9,10,11,12,13,14,15,17,19,20,21,22,23,25,26,27,28,29},
	{1,2,3,4,6,8,9,10,11,13,14,15,16,17,18,20,21,22,23,25,26,27,29,30},
	{1,5,6,8,9,10,11,13,14,15,16,17,19,20,21,22,23,24,25,26,27,29},
	{1,2,3,4,6,8,9,10,11,13,14,15,16,17,18,20,21,22,23,25,26,27,29,30},
	{1,2,3,4,5,6,9,10,11,13,14,16,18,19,20,21,22,23,24,25,26,27,29,30},
	{1,3,5,6,7,9,10,11,12,13,14,16,19,21,22,23,24,25,26,27,28,29},
	{1,2,3,4,6,8,9,10,11,13,14,15,16,17,18,20,21,22,23,25,26,27,29,30},
	{1,5,6,8,9,10,11,13,14,15,16,17,19,20,21,22,23,24,25,26,27,29},
	{1,3,5,6,7,9,10,11,12,13,14,16,19,21,22,23,24,25,26,27,28,29},
	{1,3,5,6,7,9,10,11,12,13,14,16,19,21,22,23,24,25,26,27,28,29},
	{1,2,3,4,5,6,9,10,11,13,14,16,18,19,20,21,22,23,24,25,26,27,29,30},
	{1,5,6,8,9,10,11,13,14,15,16,17,19,20,21,22,23,24,25,26,27,29},
	{1,2,3,4,5,6,9,10,11,13,14,16,18,19,20,21,22,23,24,25,26,27,29,30},
	{1,2,3,4,6,7,9,10,11,12,14,16,18,19,20,22,23,25,27,28,29,30},
	{1,3,5,6,7,9,10,11,12,13,14,16,19,21,22,23,24,25,26,27,28,29},
	{1,3,5,6,7,9,10,11,12,13,14,16,19,21,22,23,24,25,26,27,28,29},
	{1,2,3,4,6,8,9,10,11,13,14,15,16,17,18,20,21,22,23,25,26,27,29,30},
	{1,2,3,4,5,6,9,10,11,13,14,16,18,19,20,21,22,23,24,25,26,27,29,30},
	{1,2,3,4,6,8,9,10,11,13,14,15,16,17,18,20,21,22,23,25,26,27,29,30},
	{1,3,6,7,8,9,10,11,12,13,14,15,17,19,20,21,22,23,25,26,27,28,29},
	{1,3,6,7,8,9,10,11,12,13,14,15,17,19,20,21,22,23,25,26,27,28,29},
	{1,2,3,4,6,7,9,10,11,12,14,16,18,19,20,22,23,25,27,28,29,30},
	{1,5,6,8,9,10,11,13,14,15,16,17,19,20,21,22,23,24,25,26,27,29},
	{1,3,6,7,8,9,10,11,12,13,14,15,17,19,20,21,22,23,25,26,27,28,29},
	{1,2,3,4,6,8,9,10,11,13,14,15,16,17,18,20,21,22,23,25,26,27,29,30},
	{1,2,3,4,6,8,9,10,11,13,14,15,16,17,18,20,21,22,23,25,26,27,29,30},
	{1,2,3,4,6,7,9,10,11,12,14,16,18,19,20,22,23,25,27,28,29,30},
	{1,2,3,4,6,7,9,10,11,12,14,16,18,19,20,22,23,25,27,28,29,30},
	{1,2,3,4,5,6,9,10,11,13,14,16,18,19,20,21,22,23,24,25,26,27,29,30},
	{1,3,5,6,7,9,10,11,12,13,14,16,19,21,22,23,24,25,26,27,28,29},
	{1,3,5,6,7,9,10,11,12,13,14,16,19,21,22,23,24,25,26,27,28,29},
	{}];

POTENTIAL_ACT = [{2,3,4,5,6,7,8,9,10,11,12,13,14,15,16,17,18,19,20,21,22,23,24,25,26,27,28,29,30,31,32,33,34,35,36,37,38,39,40,41},
	{2,4,6,8,9,12,14,15,17,21,23,24,27,28,29,32,35,36,37,38,39},
	{2,3,4,6,8,9,10,11,12,14,15,16,17,19,20,21,23,24,25,26,27,28,29,30,31,32,34,35,36,37,38,39,40,41},
	{2,4,6,8,9,12,14,15,17,21,23,24,27,28,29,32,35,36,37,38,39},
	{3,4,5,6,7,8,10,13,15,16,18,19,20,21,22,23,25,26,28,33,39,40,41},
	{2,3,4,5,6,7,8,9,10,11,12,13,14,15,16,17,18,19,20,21,22,23,24,25,26,27,28,29,30,31,32,33,34,35,36,37,38,39,40,41},
	{3,10,11,16,19,20,24,25,26,30,31,32,34,37,38,40,41},
	{2,5,7,9,11,12,13,14,17,18,22,27,29,30,31,33,34,35,36},
	{2,3,4,5,6,7,8,9,10,11,12,13,14,15,16,17,18,19,20,21,22,23,24,25,26,27,28,29,30,31,32,33,34,35,36,37,38,39,40,41},
	{2,3,4,5,6,7,8,9,10,11,12,13,14,15,16,17,18,19,20,21,22,23,24,25,26,27,28,29,30,31,32,33,34,35,36,37,38,39,40,41},
	{2,3,4,5,6,7,8,9,10,11,12,13,14,15,16,17,18,19,20,21,22,23,24,25,26,27,28,29,30,31,32,33,34,35,36,37,38,39,40,41},
	{3,10,11,16,19,20,24,25,26,30,31,32,34,37,38,40,41},
	{2,3,4,5,6,7,8,9,10,11,12,13,14,15,16,17,18,19,20,21,22,23,25,26,27,28,29,30,31,33,34,35,36,39,40,41},
	{2,3,4,5,6,7,8,9,10,11,12,13,14,15,16,17,18,19,20,21,22,23,24,25,26,27,28,29,30,31,32,33,34,35,36,37,38,39,40,41},
	{2,5,7,9,11,12,13,14,17,18,22,27,29,30,31,33,34,35,36},
	{2,3,4,5,6,7,8,9,10,12,13,14,15,16,17,18,19,20,21,22,23,24,25,26,27,28,29,32,33,35,36,37,38,39,40,41},
	{2,5,7,9,11,12,13,14,17,18,22,27,29,30,31,33,34,35,36},
	{2,4,6,8,9,12,14,15,17,21,23,24,27,28,29,32,35,36,37,38,39},
	{3,4,5,6,7,8,10,11,13,15,16,18,19,20,21,22,23,24,25,26,28,30,31,32,33,34,37,38,39,40,41},
	{2,4,5,6,7,8,9,11,12,13,14,15,17,18,21,22,23,24,27,28,29,30,31,32,33,34,35,36,37,38,39},
	{2,3,4,5,6,7,8,9,10,11,12,13,14,15,16,17,18,19,20,21,22,23,25,26,27,28,29,30,31,33,34,35,36,39,40,41},
	{2,3,4,5,6,7,8,9,10,11,12,13,14,15,16,17,18,19,20,21,22,23,24,25,26,27,28,29,30,31,32,33,34,35,36,37,38,39,40,41},
	{2,3,4,5,6,7,8,9,10,11,12,13,14,15,16,17,18,19,20,21,22,23,24,25,26,27,28,29,30,31,32,33,34,35,36,37,38,39,40,41},
	{3,4,5,6,7,8,10,13,15,16,18,19,20,21,22,23,25,26,28,33,39,40,41},
	{2,3,4,5,6,7,8,9,10,11,12,13,14,15,16,17,18,19,20,21,22,23,24,25,26,27,28,29,30,31,32,33,34,35,36,37,38,39,40,41},
	{2,3,4,5,6,7,8,9,10,11,12,13,14,15,16,17,18,19,20,21,22,23,25,26,27,28,29,30,31,33,34,35,36,39,40,41},
	{2,3,4,5,6,7,8,9,10,11,12,13,14,15,16,17,18,19,20,21,22,23,24,25,26,27,28,29,30,31,32,33,34,35,36,37,38,39,40,41},
	{3,10,11,16,19,20,24,25,26,30,31,32,34,37,38,40,41},
	{2,3,4,5,6,7,8,9,10,11,12,13,14,15,16,17,18,19,20,21,22,23,24,25,26,27,28,29,30,31,32,33,34,35,36,37,38,39,40,41},
	{2,4,6,8,9,12,14,15,17,21,23,24,27,28,29,32,35,36,37,38,39}];
